Gurobi 9.1.2 (linux64) logging started Fri Mar  4 21:12:47 2022

Gurobi Optimizer version 9.1.2 build v9.1.2rc0 (linux64)
Thread count: 12 physical cores, 24 logical processors, using up to 1 threads
Optimize a model with 44740 rows, 44740 columns and 550635 nonzeros
Model fingerprint: 0xb6ac0efd
Model has 461881 quadratic objective terms
Variable types: 44640 continuous, 100 integer (100 binary)
Coefficient statistics:
  Matrix range     [2e-04, 1e+00]
  Objective range  [8e-24, 1e-03]
  QObjective range [7e-07, 2e-05]
  Bounds range     [1e+00, 1e+00]
  RHS range        [2e+00, 2e+00]
Found heuristic solution: objective 24.0920649
Presolve removed 8441 rows and 8441 columns
Presolve time: 2.25s
Presolved: 36299 rows, 36299 columns, 509217 nonzeros
Presolved model has 372223 quadratic objective terms
Variable types: 36199 continuous, 100 integer (100 binary)

Root simplex log...

Iteration    Objective       Primal Inf.    Dual Inf.      Time
    2912    2.4092065e+01   0.000000e+00   6.344054e+03      5s
Warning: Markowitz tolerance tightened to 0.125
Warning: Markowitz tolerance tightened to 0.5
    7151    2.4092065e+01   0.000000e+00   6.180408e+04     13s
    8211    2.4092065e+01   0.000000e+00   2.699270e+05     15s
    9191    2.1491051e+01   0.000000e+00   7.601086e+02     21s
   10171    2.1560666e+01   0.000000e+00   3.930074e+04     26s
   10759    2.1560588e+01   0.000000e+00   6.105926e+04     31s
   11347    2.1560566e+01   0.000000e+00   9.546127e+04     35s
   12131    2.1560604e+01   0.000000e+00   2.072860e+05     41s
   12523    2.1560603e+01   0.000000e+00   2.800665e+05     45s
   12945    2.1560585e+01   0.000000e+00   2.883107e+05     50s
   13473    2.1560591e+01   0.000000e+00   5.045415e+05     55s
   13878    1.7981927e+01   0.000000e+00   4.671676e+02     63s
   14132    1.7981927e+01   0.000000e+00   5.075966e+02     67s
   14513    1.7981927e+01   0.000000e+00   7.610222e+02     71s
   14894    1.7981927e+01   0.000000e+00   6.861611e+02     76s
   15275    1.7981927e+01   0.000000e+00   1.538635e+03     81s
   15656    1.7981927e+01   0.000000e+00   8.064155e+02     86s
   16037    1.7981927e+01   0.000000e+00   1.153315e+03     91s
   16418    1.7981927e+01   0.000000e+00   8.076939e+02     96s
   16672    1.7981927e+01   0.000000e+00   7.777099e+02    100s
   17053    1.7981927e+01   0.000000e+00   1.849625e+03    105s
   17434    1.7981927e+01   0.000000e+00   9.542945e+02    111s
   17688    1.7981927e+01   0.000000e+00   8.917555e+02    115s
   18069    1.7981927e+01   0.000000e+00   1.735204e+03    121s
   18323    1.7981927e+01   0.000000e+00   1.379352e+03    125s
   18704    1.7981927e+01   0.000000e+00   8.897746e+02    132s
   18958    1.7981927e+01   0.000000e+00   8.865216e+02    137s
   19212    1.7981927e+01   0.000000e+00   8.722950e+02    141s
   19466    1.7981927e+01   0.000000e+00   1.040737e+03    146s
   19720    1.7981927e+01   0.000000e+00   1.190754e+03    150s
   19974    1.7981927e+01   0.000000e+00   9.696749e+02    155s
   20355    1.7981927e+01   0.000000e+00   1.683234e+03    163s
   20482    1.7981927e+01   0.000000e+00   9.880490e+02    165s
   20736    1.7981927e+01   0.000000e+00   1.298570e+03    170s
   20990    1.7981927e+01   0.000000e+00   1.113763e+03    175s
   21244    1.7981927e+01   0.000000e+00   9.244583e+02    180s
   21498    1.7981927e+01   0.000000e+00   9.517659e+02    185s
   21752    1.7981927e+01   0.000000e+00   1.085036e+03    191s
   22006    1.7981927e+01   0.000000e+00   8.132173e+02    196s
   22260    1.7981927e+01   0.000000e+00   1.260412e+03    202s
   22514    1.7981927e+01   0.000000e+00   9.944272e+02    207s
   22641    1.7981927e+01   0.000000e+00   2.144942e+03    211s
   22895    1.7981927e+01   0.000000e+00   1.529078e+03    216s
   23149    1.7981927e+01   0.000000e+00   1.381973e+03    223s
   23276    1.7981927e+01   0.000000e+00   1.234859e+03    226s
   23530    1.7981927e+01   0.000000e+00   1.112731e+03    232s
   23784    1.7981927e+01   0.000000e+00   9.938800e+02    238s
   23911    1.7981927e+01   0.000000e+00   1.710263e+03    241s
   24165    1.7981927e+01   0.000000e+00   1.496451e+03    248s
   24292    1.7981927e+01   0.000000e+00   1.024603e+03    251s
   24546    1.7981927e+01   0.000000e+00   1.199667e+03    258s
   24673    1.7981927e+01   0.000000e+00   2.046825e+03    261s
   24927    1.7981927e+01   0.000000e+00   1.737593e+03    268s
   25054    1.7981927e+01   0.000000e+00   9.863296e+02    272s
   25308    1.7981927e+01   0.000000e+00   1.519432e+03    278s
   25435    1.7981927e+01   0.000000e+00   1.420406e+03    282s
   25562    1.7981927e+01   0.000000e+00   8.983853e+02    285s
   25816    1.7981927e+01   0.000000e+00   1.155737e+03    293s
   25943    1.7981927e+01   0.000000e+00   2.862659e+03    296s
   26070    1.7981927e+01   0.000000e+00   1.121639e+03    300s
   26324    1.7981927e+01   0.000000e+00   1.031214e+03    307s
   26451    1.7981927e+01   0.000000e+00   1.712393e+03    313s
   26578    1.7981927e+01   0.000000e+00   1.382670e+03    317s
   26705    1.7981927e+01   0.000000e+00   1.540050e+03    321s
   26959    1.7981927e+01   0.000000e+00   1.671360e+03    328s
   27086    1.7981927e+01   0.000000e+00   1.216399e+03    332s
   27213    1.7981927e+01   0.000000e+00   3.227980e+03    336s
   27340    1.7981927e+01   0.000000e+00   1.049325e+03    340s
   27594    1.7981927e+01   0.000000e+00   1.174274e+03    349s
   27721    1.7981927e+01   0.000000e+00   1.710051e+03    353s
   27848    1.7981927e+01   0.000000e+00   1.863643e+03    357s
   27975    1.7981927e+01   0.000000e+00   1.726122e+03    361s
   28102    1.7981927e+01   0.000000e+00   1.244900e+03    365s
   28356    1.7981927e+01   0.000000e+00   1.248558e+03    374s
   28483    1.7981927e+01   0.000000e+00   2.022537e+03    378s
   28610    1.7981927e+01   0.000000e+00   1.376571e+03    383s
   28737    1.7981927e+01   0.000000e+00   2.789888e+03    387s
   28864    1.7981927e+01   0.000000e+00   2.480402e+03    392s
   28991    1.7981927e+01   0.000000e+00   3.127179e+03    396s
   29118    1.7981927e+01   0.000000e+00   2.064624e+03    401s
   29245    1.7981927e+01   0.000000e+00   4.614921e+03    406s
   29372    1.7981927e+01   0.000000e+00   3.029557e+03    411s
   29499    1.7981927e+01   0.000000e+00   6.736952e+03    416s
   29626    1.7981927e+01   0.000000e+00   3.369817e+03    421s
   29753    1.7981927e+01   0.000000e+00   4.614693e+03    426s
   29880    1.7981927e+01   0.000000e+00   1.813644e+03    431s
   30007    1.7981927e+01   0.000000e+00   5.223313e+03    436s
   30134    1.7981927e+01   0.000000e+00   2.208181e+03    441s
   30261    1.7981927e+01   0.000000e+00   4.311356e+03    447s
   30388    1.7981927e+01   0.000000e+00   2.245195e+03    452s
   30515    1.7981927e+01   0.000000e+00   4.936207e+03    458s
   30642    1.7981927e+01   0.000000e+00   3.372129e+03    463s
   30769    1.7981927e+01   0.000000e+00   5.695884e+03    469s
   30896    1.7981927e+01   0.000000e+00   2.361351e+03    474s
   31023    1.7981927e+01   0.000000e+00   6.566702e+03    479s
   31150    1.7981927e+01   0.000000e+00   3.664010e+03    484s
   31277    1.7981927e+01   0.000000e+00   6.414605e+03    490s
   31404    1.7981927e+01   0.000000e+00   2.938341e+03    495s
   31531    1.7981927e+01   0.000000e+00   8.810804e+03    501s
   31658    1.7981927e+01   0.000000e+00   9.520799e+02    506s
   31785    1.7981927e+01   0.000000e+00   7.672618e+03    512s
   31912    1.7981927e+01   0.000000e+00   6.362179e+03    517s
   32039    1.7981927e+01   0.000000e+00   1.344777e+04    523s
   32166    1.1859709e+01   0.000000e+00   3.250166e+02    530s
   32293    1.1859669e+01   0.000000e+00   5.638467e+02    537s
   32420    1.1859724e+01   0.000000e+00   3.963638e+02    544s
   32547    1.1859662e+01   0.000000e+00   4.464992e+02    550s
   32674    1.1859630e+01   0.000000e+00   3.416502e+02    557s
   32801    1.1859681e+01   0.000000e+00   5.865379e+02    565s
   32928    1.1859602e+01   0.000000e+00   3.423284e+02    571s
   33055    1.1859629e+01   0.000000e+00   5.294714e+02    578s
   33182    1.1859581e+01   0.000000e+00   5.018973e+02    586s
   33309    1.1859592e+01   0.000000e+00   4.654585e+02    593s
   33436    1.1859571e+01   0.000000e+00   3.197139e+02    600s
   33563    1.1859555e+01   0.000000e+00   4.868875e+02    607s
   33690    1.1859550e+01   0.000000e+00   3.560028e+02    615s
   33817    1.1859567e+01   0.000000e+00   6.403858e+02    622s
   33944    1.1859538e+01   0.000000e+00   3.363936e+02    629s
   34071    1.1859545e+01   0.000000e+00   6.225934e+02    636s
   34198    1.1859544e+01   0.000000e+00   6.254889e+02    644s
   34325    1.1859533e+01   0.000000e+00   5.320414e+02    651s
   34452    1.1859521e+01   0.000000e+00   4.596433e+02    659s
   34579    1.1859531e+01   0.000000e+00   1.048459e+03    666s
   34706    1.1859513e+01   0.000000e+00   3.997508e+02    673s
   34833    1.1859519e+01   0.000000e+00   1.003392e+03    681s
   34960    1.1859508e+01   0.000000e+00   4.255825e+02    688s
   35087    1.1859505e+01   0.000000e+00   6.972738e+02    696s
   35214    1.1859502e+01   0.000000e+00   3.944745e+02    704s
   35341    1.1859502e+01   0.000000e+00   8.605612e+02    711s
   35468    1.1859502e+01   0.000000e+00   4.643530e+02    719s
   35595    1.1859499e+01   0.000000e+00   1.255546e+03    727s
   35722    1.1859495e+01   0.000000e+00   4.623372e+02    740s
   35849    1.1859492e+01   0.000000e+00   1.042545e+03    748s
   35976    1.1859497e+01   0.000000e+00   4.707155e+02    756s
   36103    1.1859486e+01   0.000000e+00   9.034085e+02    763s
   36230    1.1859490e+01   0.000000e+00   6.490929e+02    771s
   36357    1.1859482e+01   0.000000e+00   1.413125e+03    779s
   36484    1.1859485e+01   0.000000e+00   6.848838e+02    787s
   36611    1.1859481e+01   0.000000e+00   1.273906e+03    795s
   36738    1.1859479e+01   0.000000e+00   9.144019e+02    803s
   36865    1.1859479e+01   0.000000e+00   1.816685e+03    811s
   36992    1.1859479e+01   0.000000e+00   1.017665e+03    819s
   37119    1.1859476e+01   0.000000e+00   1.898468e+03    827s
   37246    1.1859474e+01   0.000000e+00   1.245948e+03    835s
   37373    1.1859477e+01   0.000000e+00   2.455158e+03    843s
   37500    1.1859473e+01   0.000000e+00   7.399555e+02    851s
   37627    1.1859474e+01   0.000000e+00   1.821016e+03    859s
   37754    1.1860230e+01   0.000000e+00   1.141327e+03    867s
   37881    1.1860442e+01   0.000000e+00   3.729494e+03    876s
   38008    1.1860555e+01   0.000000e+00   1.217675e+03    885s
   38135    1.1859489e+01   0.000000e+00   5.453516e+03    894s
   38262    7.3913852e+00   0.000000e+00   2.420348e+01    904s
   38326    7.2875468e+00   0.000000e+00   0.000000e+00    913s

Root relaxation: objective 7.287547e+00, 38326 iterations, 909.42 seconds

    Nodes    |    Current Node    |     Objective Bounds      |     Work
 Expl Unexpl |  Obj  Depth IntInf | Incumbent    BestBd   Gap | It/Node Time

     0     0    7.28755    0  100   24.09206    7.28755  69.8%     -  913s
     0     0    7.30209    0  100   24.09206    7.30209  69.7%     -  946s
H    0     0                      12.3951816    7.30209  41.1%     -  984s
     0     0    7.30498    0  100   12.39518    7.30498  41.1%     - 1012s
     0     0    7.30847    0  100   12.39518    7.30847  41.0%     - 1049s
     0     0    7.30866    0  100   12.39518    7.30866  41.0%     - 1122s
     0     0    7.32949    0  100   12.39518    7.32949  40.9%     - 1156s
     0     0    7.34201    0  100   12.39518    7.34201  40.8%     - 1187s
     0     0    7.36401    0  100   12.39518    7.36401  40.6%     - 1241s
     0     0    7.40816    0  100   12.39518    7.40816  40.2%     - 1304s
     0     0    7.42542    0  100   12.39518    7.42542  40.1%     - 1380s
     0     0    7.44387    0  100   12.39518    7.44387  39.9%     - 1433s
     0     0    7.44529    0  100   12.39518    7.44529  39.9%     - 1489s
     0     0    7.45496    0  100   12.39518    7.45496  39.9%     - 1519s
     0     0    7.45542    0  100   12.39518    7.45542  39.9%     - 1581s
     0     0    7.46501    0  100   12.39518    7.46501  39.8%     - 1627s
     0     0    7.48788    0  100   12.39518    7.48788  39.6%     - 1684s
     0     0    7.49623    0  100   12.39518    7.49623  39.5%     - 1723s
     0     0    7.50563    0  100   12.39518    7.50563  39.4%     - 1795s
     0     0    7.50872    0  100   12.39518    7.50872  39.4%     - 1834s
     0     0    7.52445    0  100   12.39518    7.52445  39.3%     - 1875s
     0     0    7.58988    0  100   12.39518    7.58988  38.8%     - 1950s
     0     0    7.59860    0  100   12.39518    7.59860  38.7%     - 2023s
     0     0    7.61829    0  100   12.39518    7.61829  38.5%     - 2080s
     0     0    7.62033    0  100   12.39518    7.62033  38.5%     - 2157s
     0     0    7.62719    0  100   12.39518    7.62719  38.5%     - 2232s
     0     0    7.64125    0  100   12.39518    7.64125  38.4%     - 2278s
     0     0    7.65633    0  100   12.39518    7.65633  38.2%     - 2348s
     0     0    7.66923    0  100   12.39518    7.66923  38.1%     - 2405s
     0     0    7.66923    0  100   12.39518    7.66923  38.1%     - 2469s
     0     0    7.69547    0  100   12.39518    7.69547  37.9%     - 2507s
     0     0    7.72600    0  100   12.39518    7.72600  37.7%     - 2588s
     0     0    7.74854    0  100   12.39518    7.74854  37.5%     - 2640s
     0     0    7.75520    0  100   12.39518    7.75520  37.4%     - 2761s
     0     0    7.77004    0  100   12.39518    7.77004  37.3%     - 2829s
     0     0    7.77136    0  100   12.39518    7.77136  37.3%     - 2919s
     0     0    7.79120    0  100   12.39518    7.79120  37.1%     - 2984s
     0     0    7.79369    0  100   12.39518    7.79369  37.1%     - 3051s
     0     0    7.80475    0  100   12.39518    7.80475  37.0%     - 3131s
     0     0    7.81542    0  100   12.39518    7.81542  36.9%     - 3222s
     0     0    7.82623    0  100   12.39518    7.82623  36.9%     - 3321s
     0     0    7.84342    0  100   12.39518    7.84342  36.7%     - 3365s
     0     0    7.85540    0  100   12.39518    7.85540  36.6%     - 3434s
     0     0    7.85557    0  100   12.39518    7.85557  36.6%     - 3519s
     0     0    7.85987    0  100   12.39518    7.85987  36.6%     - 3564s
     0     0    7.85995    0  100   12.39518    7.85995  36.6%     - 3613s
     0     0    7.88089    0  100   12.39518    7.88089  36.4%     - 3698s
     0     0    7.88214    0  100   12.39518    7.88214  36.4%     - 3815s
     0     0    7.89637    0  100   12.39518    7.89637  36.3%     - 3863s
     0     0    7.89918    0  100   12.39518    7.89918  36.3%     - 3934s
     0     0    7.94329    0  100   12.39518    7.94329  35.9%     - 4042s
     0     0    7.96972    0  100   12.39518    7.96972  35.7%     - 4131s
     0     0    7.97491    0  100   12.39518    7.97491  35.7%     - 4219s
     0     0    7.97989    0  100   12.39518    7.97989  35.6%     - 4306s
     0     0    7.98188    0  100   12.39518    7.98188  35.6%     - 4356s
     0     0    7.98724    0  100   12.39518    7.98724  35.6%     - 4417s
     0     0    7.98948    0  100   12.39518    7.98948  35.5%     - 4506s
     0     0    8.00302    0  100   12.39518    8.00302  35.4%     - 4625s
     0     0    8.00311    0  100   12.39518    8.00311  35.4%     - 4702s
     0     0    8.00854    0  100   12.39518    8.00854  35.4%     - 4749s
     0     0    8.00936    0  100   12.39518    8.00936  35.4%     - 4832s
     0     0    8.01556    0  100   12.39518    8.01556  35.3%     - 4884s
     0     0    8.01686    0  100   12.39518    8.01686  35.3%     - 4978s
     0     0    8.02376    0  100   12.39518    8.02376  35.3%     - 5086s
     0     0    8.02387    0  100   12.39518    8.02387  35.3%     - 5163s
     0     0    8.02948    0  100   12.39518    8.02948  35.2%     - 5216s
     0     0    8.03366    0  100   12.39518    8.03366  35.2%     - 5302s
     0     0    8.05356    0  100   12.39518    8.05356  35.0%     - 5359s
     0     0    8.05374    0  100   12.39518    8.05374  35.0%     - 5454s
     0     0    8.06057    0  100   12.39518    8.06057  35.0%     - 5546s
     0     0    8.06142    0  100   12.39518    8.06142  35.0%     - 5637s
     0     0    8.07234    0  100   12.39518    8.07234  34.9%     - 5695s
     0     0    8.07446    0  100   12.39518    8.07446  34.9%     - 5797s
     0     0    8.08221    0  100   12.39518    8.08221  34.8%     - 5901s
     0     0    8.08323    0  100   12.39518    8.08323  34.8%     - 6003s
     0     0    8.09705    0  100   12.39518    8.09705  34.7%     - 6174s
     0     0    8.09794    0  100   12.39518    8.09794  34.7%     - 6261s
     0     0    8.10436    0  100   12.39518    8.10436  34.6%     - 6352s
     0     0    8.10441    0  100   12.39518    8.10441  34.6%     - 6447s
     0     0    8.12086    0  100   12.39518    8.12086  34.5%     - 6556s
     0     0    8.12112    0  100   12.39518    8.12112  34.5%     - 6633s
     0     0    8.12610    0  100   12.39518    8.12610  34.4%     - 6717s
     0     0    8.12640    0  100   12.39518    8.12640  34.4%     - 6827s
     0     0    8.13391    0  100   12.39518    8.13391  34.4%     - 6893s
     0     0    8.13451    0  100   12.39518    8.13451  34.4%     - 7010s
     0     0    8.14507    0  100   12.39518    8.14507  34.3%     - 7101s
     0     0    8.14526    0  100   12.39518    8.14526  34.3%     - 7191s
     0     0    8.15814    0  100   12.39518    8.15814  34.2%     - 7274s
     0     0    8.15917    0  100   12.39518    8.15917  34.2%     - 7392s
     0     0    8.16392    0  100   12.39518    8.16392  34.1%     - 7488s
     0     0    8.16426    0  100   12.39518    8.16426  34.1%     - 7546s
     0     0    8.16892    0  100   12.39518    8.16892  34.1%     - 7663s
     0     0    8.17320    0  100   12.39518    8.17320  34.1%     - 7755s
     0     0    8.17861    0  100   12.39518    8.17861  34.0%     - 7869s
     0     0    8.19193    0  100   12.39518    8.19193  33.9%     - 7963s
     0     0    8.22202    0  100   12.39518    8.22202  33.7%     - 8066s
     0     0    8.22304    0  100   12.39518    8.22304  33.7%     - 8165s
     0     0    8.23704    0  100   12.39518    8.23704  33.5%     - 8258s
     0     0    8.24026    0  100   12.39518    8.24026  33.5%     - 8392s
     0     0    8.25256    0  100   12.39518    8.25256  33.4%     - 8504s
     0     0    8.25714    0  100   12.39518    8.25714  33.4%     - 8612s
     0     0    8.26758    0  100   12.39518    8.26758  33.3%     - 8719s
     0     0    8.26759    0  100   12.39518    8.26759  33.3%     - 8811s
     0     0    8.27153    0  100   12.39518    8.27153  33.3%     - 8876s
     0     0    8.27161    0  100   12.39518    8.27161  33.3%     - 8991s
     0     0    8.27583    0  100   12.39518    8.27583  33.2%     - 9118s
     0     0    8.28148    0  100   12.39518    8.28148  33.2%     - 9232s
     0     0    8.28212    0  100   12.39518    8.28212  33.2%     - 9350s
     0     0    8.28885    0  100   12.39518    8.28885  33.1%     - 9419s
     0     0    8.29275    0  100   12.39518    8.29275  33.1%     - 9519s
     0     0    8.29625    0  100   12.39518    8.29625  33.1%     - 9643s
     0     0    8.32435    0  100   12.39518    8.32435  32.8%     - 9735s
     0     0    8.32437    0  100   12.39518    8.32437  32.8%     - 9845s
     0     0    8.33388    0  100   12.39518    8.33388  32.8%     - 9898s
     0     0    8.33494    0  100   12.39518    8.33494  32.8%     - 10015s
     0     0    8.34563    0  100   12.39518    8.34563  32.7%     - 10117s
     0     0    8.34591    0  100   12.39518    8.34591  32.7%     - 10237s
     0     0    8.35267    0  100   12.39518    8.35267  32.6%     - 10307s
     0     0    8.36654    0  100   12.39518    8.36654  32.5%     - 10419s
     0     0    8.37126    0  100   12.39518    8.37126  32.5%     - 10563s
     0     0    8.37361    0  100   12.39518    8.37361  32.4%     - 10672s
     0     0    8.37371    0  100   12.39518    8.37371  32.4%     - 10763s
     0     0    8.38516    0  100   12.39518    8.38516  32.4%     - 10846s
     0     0    8.38600    0  100   12.39518    8.38600  32.3%     - 10972s
     0     0    8.38608    0  100   12.39518    8.38608  32.3%     - 11092s
     0     0    8.40901    0  100   12.39518    8.40901  32.2%     - 11171s
     0     0    8.41836    0  100   12.39518    8.41836  32.1%     - 11320s
     0     0    8.42204    0  100   12.39518    8.42204  32.1%     - 11393s
     0     0    8.42468    0  100   12.39518    8.42468  32.0%     - 11525s
     0     0    8.42953    0  100   12.39518    8.42953  32.0%     - 11594s
     0     0    8.43699    0  100   12.39518    8.43699  31.9%     - 11705s
     0     0    8.43916    0  100   12.39518    8.43916  31.9%     - 11818s
     0     0    8.43929    0  100   12.39518    8.43929  31.9%     - 11870s
     0     0    8.44579    0  100   12.39518    8.44579  31.9%     - 11944s
     0     0    8.44587    0  100   12.39518    8.44587  31.9%     - 12089s
     0     0    8.45909    0  100   12.39518    8.45909  31.8%     - 12180s
     0     0    8.45911    0  100   12.39518    8.45911  31.8%     - 12286s
     0     0    8.46318    0  100   12.39518    8.46318  31.7%     - 12352s
     0     0    8.46434    0  100   12.39518    8.46434  31.7%     - 12444s
     0     0    8.46439    0  100   12.39518    8.46439  31.7%     - 12538s
     0     0    8.47361    0  100   12.39518    8.47361  31.6%     - 12617s
     0     0    8.47366    0  100   12.39518    8.47366  31.6%     - 12734s
     0     0    8.48313    0  100   12.39518    8.48313  31.6%     - 12852s
     0     0    8.48336    0  100   12.39518    8.48336  31.6%     - 12967s
     0     0    8.49641    0  100   12.39518    8.49641  31.5%     - 13061s
     0     0    8.49673    0  100   12.39518    8.49673  31.5%     - 13174s
     0     0    8.49674    0  100   12.39518    8.49674  31.5%     - 13269s
     0     0    8.51375    0  100   12.39518    8.51375  31.3%     - 13363s
     0     0    8.51879    0  100   12.39518    8.51879  31.3%     - 13460s
     0     0    8.51915    0  100   12.39518    8.51915  31.3%     - 13575s
     0     0    8.53269    0  100   12.39518    8.53269  31.2%     - 13638s
     0     0    8.53362    0  100   12.39518    8.53362  31.2%     - 13755s
     0     0    8.53370    0  100   12.39518    8.53370  31.2%     - 13885s
     0     0    8.54626    0  100   12.39518    8.54626  31.1%     - 13949s
     0     0    8.55032    0  100   12.39518    8.55032  31.0%     - 14065s
     0     0    8.56192    0  100   12.39518    8.56192  30.9%     - 14174s
     0     0    8.56402    0  100   12.39518    8.56402  30.9%     - 14321s
     0     0    8.56406    0  100   12.39518    8.56406  30.9%     - 14421s
     0     0    8.56980    0  100   12.39518    8.56980  30.9%     - 14487s
     0     0    8.56983    0  100   12.39518    8.56983  30.9%     - 14632s
     0     0    8.57433    0  100   12.39518    8.57433  30.8%     - 14698s
     0     0    8.57448    0  100   12.39518    8.57448  30.8%     - 14866s
     0     0    8.57451    0  100   12.39518    8.57451  30.8%     - 15003s
     0     0    8.57960    0  100   12.39518    8.57960  30.8%     - 15111s
     0     0    8.57969    0  100   12.39518    8.57969  30.8%     - 15232s
     0     0    8.58346    0  100   12.39518    8.58346  30.8%     - 15303s
     0     0    8.58773    0  100   12.39518    8.58773  30.7%     - 15397s
     0     0    8.58945    0  100   12.39518    8.58945  30.7%     - 15560s
     0     0    8.59019    0  100   12.39518    8.59019  30.7%     - 15707s
     0     0    8.60084    0  100   12.39518    8.60084  30.6%     - 15813s
     0     0    8.60141    0  100   12.39518    8.60141  30.6%     - 15923s
     0     0    8.60337    0  100   12.39518    8.60337  30.6%     - 16059s
     0     0    8.61000    0  100   12.39518    8.61000  30.5%     - 16146s
     0     0    8.61000    0  100   12.39518    8.61000  30.5%     - 16384s
     0     0    8.61411    0  100   12.39518    8.61411  30.5%     - 16458s
     0     0    8.61427    0  100   12.39518    8.61427  30.5%     - 16567s
     0     0    8.62127    0  100   12.39518    8.62127  30.4%     - 16659s
     0     0    8.62179    0  100   12.39518    8.62179  30.4%     - 16779s
     0     0    8.62181    0  100   12.39518    8.62181  30.4%     - 16899s
     0     0    8.63059    0  100   12.39518    8.63059  30.4%     - 16971s
     0     0    8.63092    0  100   12.39518    8.63092  30.4%     - 17102s
     0     0    8.63751    0  100   12.39518    8.63751  30.3%     - 17173s
     0     0    8.64116    0  100   12.39518    8.64116  30.3%     - 17295s
     0     0    8.64173    0  100   12.39518    8.64173  30.3%     - 17401s
     0     0    8.64177    0  100   12.39518    8.64177  30.3%     - 17460s
     0     0    8.64925    0  100   12.39518    8.64925  30.2%     - 17565s
     0     0    8.64926    0  100   12.39518    8.64926  30.2%     - 17670s
     0     0    8.65408    0  100   12.39518    8.65408  30.2%     - 17786s
     0     0    8.65412    0  100   12.39518    8.65412  30.2%     - 17903s
     0     0    8.65804    0  100   12.39518    8.65804  30.1%     - 17993s
     0     0    8.65809    0  100   12.39518    8.65809  30.1%     - 18087s
     0     0    8.66063    0  100   12.39518    8.66063  30.1%     - 18165s
     0     0    8.66064    0  100   12.39518    8.66064  30.1%     - 18255s
     0     0    8.66163    0  100   12.39518    8.66163  30.1%     - 18348s
     0     0    9.72032    0   66   12.39518    9.72032  21.6%     - 18943s
     0     2    9.72346    0   66   12.39518    9.72346  21.6%     - 19446s
     1     3   12.34232    1   16   12.39518   11.76622  5.07%  95.0 19457s
     2     4   12.34337    2   15   12.39518   11.76622  5.07%  50.0 19465s
     4     4   12.35698    3   15   12.39518   11.76622  5.07%  28.0 19482s
     5     4   12.35931    4   14   12.39518   11.76622  5.07%  24.4 19490s
     6     5   12.36353    5   12   12.39518   11.76622  5.07%  21.0 19502s
     7     6   12.37316    6   11   12.39518   11.76622  5.07%  18.6 19507s
     9     4     cutoff    6        12.39518   11.76622  5.07%  16.0 19513s
    10     3     cutoff    7        12.39518   11.76622  5.07%  16.3 19520s
    11     2     cutoff    1        12.39518   12.35211  0.35%  20.3 19535s
    12     1     cutoff    2        12.39518   12.37709  0.15%  18.8 19543s
    13     0     cutoff    4        12.39518   12.39518  0.00%  17.5 19550s

Cutting planes:
  Network: 21

Explored 14 nodes (42505 simplex iterations) in 19550.01 seconds
Thread count was 1 (of 24 available processors)

Solution count 2: 12.3952 24.0921 

Optimal solution found (tolerance 1.00e-04)
Best objective 1.239518156839e+01, best bound 1.239518156839e+01, gap 0.0000%
